sat
(model 
  (define-fun |required(ezcsp__leq(nWeight(3),ezcsp__mn(ezcsp__pl(78,100),78)))| () Bool
    false)
  (define-fun |leafPos(8,6)| () Bool
    false)
  (define-fun |required(ezcsp__leq(nWeight(4),ezcsp__mn(ezcsp__pl(87,92),87)))| () Bool
    false)
  (define-fun |nWeight(6)| () Int
    123)
  (define-fun |required(ezcsp__eq(nWeight(7),ezcsp__pl(nWeight(6),34)))| () Bool
    false)
  (define-fun |posColor(4,blue)| () Bool
    false)
  (define-fun |required(ezcsp__gt(nWeight(5),ezcsp__mn(ezcsp__pl(78,100),78)))| () Bool
    false)
  (define-fun |required(ezcsp__eq(nWeight(3),48))| () Bool
    true)
  (define-fun |nWeight(5)| () Int
    89)
  (define-fun |leafPos(5,5)| () Bool
    false)
  (define-fun |478| () Bool
    false)
  (define-fun |leafPos(8,1)| () Bool
    false)
  (define-fun |required(ezcsp__eq(nWeight(2),ezcsp__pl(nWeight(1),34)))| () Bool
    false)
  (define-fun |required(ezcsp__eq(nWeight(4),ezcsp__pl(nWeight(3),78)))| () Bool
    false)
  (define-fun |leafPos(3,7)| () Bool
    false)
  (define-fun |458| () Bool
    false)
  (define-fun |required(ezcsp__leq(nWeight(4),ezcsp__mn(ezcsp__pl(78,100),78)))| () Bool
    false)
  (define-fun |required(ezcsp__gt(nWeight(2),ezcsp__mn(ezcsp__pl(68,54),54)))| () Bool
    false)
  (define-fun |494| () Bool
    false)
  (define-fun |required(ezcsp__eq(nWeight(1),131))| () Bool
    false)
  (define-fun |462| () Bool
    false)
  (define-fun |required(ezcsp__gt(nWeight(2),ezcsp__mn(ezcsp__pl(77,97),77)))| () Bool
    false)
  (define-fun |leafPos(7,3)| () Bool
    false)
  (define-fun |required(ezcsp__leq(nWeight(3),ezcsp__mn(ezcsp__pl(53,36),36)))| () Bool
    false)
  (define-fun |leafPos(1,6)| () Bool
    false)
  (define-fun |posColor(6,blue)| () Bool
    false)
  (define-fun |required(ezcsp__leq(nWeight(6),ezcsp__mn(ezcsp__pl(78,100),78)))| () Bool
    false)
  (define-fun |leafPos(4,2)| () Bool
    false)
  (define-fun |470| () Bool
    false)
  (define-fun |posColor(3,blue)| () Bool
    false)
  (define-fun |posColor(1,green)| () Bool
    false)
  (define-fun |required(ezcsp__eq(nWeight(3),100))| () Bool
    false)
  (define-fun |427| () Bool
    false)
  (define-fun |leafPos(7,7)| () Bool
    false)
  (define-fun |required(ezcsp__eq(nWeight(4),174))| () Bool
    false)
  (define-fun |required(ezcsp__eq(nWeight(7),89))| () Bool
    false)
  (define-fun |leafPos(5,7)| () Bool
    false)
  (define-fun |leafPos(3,1)| () Bool
    false)
  (define-fun |416| () Bool
    false)
  (define-fun |required(ezcsp__eq(nWeight(2),100))| () Bool
    true)
  (define-fun |required(ezcsp__eq(nWeight(7),ezcsp__pl(nWeight(6),77)))| () Bool
    false)
  (define-fun |leafPos(2,6)| () Bool
    false)
  (define-fun |required(ezcsp__eq(nWeight(1),111))| () Bool
    false)
  (define-fun |required(ezcsp__eq(nWeight(1),69))| () Bool
    false)
  (define-fun |required(ezcsp__eq(nWeight(6),178))| () Bool
    false)
  (define-fun |leafPos(1,5)| () Bool
    false)
  (define-fun |leafPos(2,3)| () Bool
    true)
  (define-fun |required(ezcsp__eq(nWeight(1),113))| () Bool
    false)
  (define-fun |446| () Bool
    false)
  (define-fun |required(ezcsp__leq(nWeight(1),ezcsp__mn(ezcsp__pl(78,45),45)))| () Bool
    false)
  (define-fun |required(ezcsp__eq(nWeight(5),ezcsp__pl(nWeight(4),87)))| () Bool
    false)
  (define-fun |required(ezcsp__eq(nWeight(4),ezcsp__pl(nWeight(3),36)))| () Bool
    false)
  (define-fun |posColor(5,red)| () Bool
    false)
  (define-fun |nWeight(3)| () Int
    48)
  (define-fun |486| () Bool
    false)
  (define-fun |required(ezcsp__eq(nWeight(3),89))| () Bool
    false)
  (define-fun |464| () Bool
    false)
  (define-fun |leafPos(7,5)| () Bool
    false)
  (define-fun |461| () Bool
    false)
  (define-fun |leafPos(4,0)| () Bool
    false)
  (define-fun |required(ezcsp__eq(nWeight(7),ezcsp__pl(nWeight(6),45)))| () Bool
    false)
  (define-fun |required(ezcsp__gt(nWeight(4),ezcsp__mn(ezcsp__pl(68,54),54)))| () Bool
    false)
  (define-fun |leafPos(6,6)| () Bool
    true)
  (define-fun |required(ezcsp__eq(nWeight(2),ezcsp__pl(nWeight(1),54)))| () Bool
    false)
  (define-fun |required(ezcsp__leq(nWeight(1),ezcsp__mn(ezcsp__pl(53,36),36)))| () Bool
    false)
  (define-fun |required(ezcsp__eq(nWeight(5),ezcsp__pl(nWeight(4),77)))| () Bool
    false)
  (define-fun |required(ezcsp__leq(nWeight(2),ezcsp__mn(ezcsp__pl(78,100),78)))| () Bool
    false)
  (define-fun |required(ezcsp__eq(nWeight(6),48))| () Bool
    false)
  (define-fun |posColor(3,red)| () Bool
    false)
  (define-fun |431| () Bool
    false)
  (define-fun |432| () Bool
    false)
  (define-fun |418| () Bool
    false)
  (define-fun |posColor(5,blue)| () Bool
    false)
  (define-fun |required(ezcsp__leq(nWeight(3),ezcsp__mn(ezcsp__pl(68,54),54)))| () Bool
    false)
  (define-fun |leafPos(4,3)| () Bool
    false)
  (define-fun |required(ezcsp__leq(nWeight(1),ezcsp__mn(ezcsp__pl(78,100),78)))| () Bool
    false)
  (define-fun |434| () Bool
    false)
  (define-fun |required(ezcsp__leq(nWeight(4),ezcsp__mn(ezcsp__pl(45,3),3)))| () Bool
    false)
  (define-fun |required(ezcsp__gt(nWeight(2),ezcsp__mn(ezcsp__pl(53,36),36)))| () Bool
    false)
  (define-fun |required(ezcsp__gt(nWeight(3),ezcsp__mn(ezcsp__pl(66,34),34)))| () Bool
    false)
  (define-fun |required(ezcsp__leq(nWeight(5),ezcsp__mn(ezcsp__pl(77,97),77)))| () Bool
    false)
  (define-fun |required(ezcsp__eq(nWeight(6),ezcsp__pl(nWeight(5),3)))| () Bool
    false)
  (define-fun |required(ezcsp__eq(nWeight(5),174))| () Bool
    false)
  (define-fun |467| () Bool
    false)
  (define-fun |leafPos(2,7)| () Bool
    false)
  (define-fun |489| () Bool
    false)
  (define-fun |required(ezcsp__eq(nWeight(1),90))| () Bool
    false)
  (define-fun |required(ezcsp__eq(nWeight(4),179))| () Bool
    false)
  (define-fun |required(ezcsp__eq(nWeight(4),100))| () Bool
    false)
  (define-fun |required(ezcsp__eq(nWeight(3),ezcsp__pl(nWeight(2),54)))| () Bool
    false)
  (define-fun |required(ezcsp__eq(nWeight(3),178))| () Bool
    false)
  (define-fun |leafPos(2,1)| () Bool
    false)
  (define-fun |required(ezcsp__eq(nWeight(1),141))| () Bool
    false)
  (define-fun |leafPos(4,6)| () Bool
    false)
  (define-fun |required(ezcsp__gt(nWeight(4),ezcsp__mn(ezcsp__pl(78,100),78)))| () Bool
    false)
  (define-fun |required(ezcsp__gt(nWeight(6),ezcsp__mn(ezcsp__pl(78,100),78)))| () Bool
    false)
  (define-fun |leafPos(5,0)| () Bool
    false)
  (define-fun |required(ezcsp__eq(nWeight(1),174))| () Bool
    false)
  (define-fun |required(ezcsp__gt(nWeight(4),ezcsp__mn(ezcsp__pl(53,36),36)))| () Bool
    true)
  (define-fun |required(ezcsp__eq(nWeight(4),ezcsp__pl(nWeight(3),3)))| () Bool
    false)
  (define-fun |posColor(2,blue)| () Bool
    false)
  (define-fun |required(ezcsp__leq(nWeight(5),ezcsp__mn(ezcsp__pl(66,34),34)))| () Bool
    false)
  (define-fun |required(ezcsp__eq(nWeight(1),112))| () Bool
    false)
  (define-fun |required(ezcsp__eq(nWeight(1),178))| () Bool
    false)
  (define-fun |leafPos(7,4)| () Bool
    true)
  (define-fun |required(ezcsp__eq(nWeight(1),89))| () Bool
    false)
  (define-fun |required(ezcsp__gt(nWeight(1),ezcsp__mn(ezcsp__pl(53,36),36)))| () Bool
    false)
  (define-fun |required(ezcsp__gt(nWeight(5),ezcsp__mn(ezcsp__pl(53,36),36)))| () Bool
    false)
  (define-fun |468| () Bool
    false)
  (define-fun |426| () Bool
    false)
  (define-fun |required(ezcsp__eq(nWeight(3),123))| () Bool
    false)
  (define-fun |required(ezcsp__eq(nWeight(6),ezcsp__pl(nWeight(5),45)))| () Bool
    false)
  (define-fun |required(ezcsp__gt(nWeight(3),ezcsp__mn(ezcsp__pl(78,45),45)))| () Bool
    false)
  (define-fun |posColor(2,green)| () Bool
    true)
  (define-fun |428| () Bool
    false)
  (define-fun |required(ezcsp__eq(nWeight(3),ezcsp__pl(nWeight(2),36)))| () Bool
    false)
  (define-fun |required(ezcsp__eq(nWeight(7),ezcsp__pl(nWeight(6),78)))| () Bool
    false)
  (define-fun |leafPos(4,5)| () Bool
    true)
  (define-fun |required(ezcsp__eq(nWeight(2),ezcsp__pl(nWeight(1),3)))| () Bool
    false)
  (define-fun |480| () Bool
    false)
  (define-fun |required(ezcsp__eq(nWeight(1),146))| () Bool
    false)
  (define-fun |leafPos(6,7)| () Bool
    false)
  (define-fun |459| () Bool
    false)
  (define-fun |required(ezcsp__gt(nWeight(5),ezcsp__mn(ezcsp__pl(68,54),54)))| () Bool
    false)
  (define-fun |leafPos(6,2)| () Bool
    false)
  (define-fun |required(ezcsp__eq(nWeight(6),89))| () Bool
    false)
  (define-fun |leafPos(4,1)| () Bool
    false)
  (define-fun |required(ezcsp__eq(nWeight(3),179))| () Bool
    false)
  (define-fun |required(ezcsp__gt(nWeight(3),ezcsp__mn(ezcsp__pl(78,100),78)))| () Bool
    false)
  (define-fun |required(ezcsp__eq(nWeight(1),80))| () Bool
    false)
  (define-fun |required(ezcsp__eq(nWeight(3),ezcsp__pl(nWeight(2),77)))| () Bool
    false)
  (define-fun |required(ezcsp__eq(nWeight(7),ezcsp__pl(nWeight(6),54)))| () Bool
    false)
  (define-fun |required(ezcsp__gt(nWeight(5),ezcsp__mn(ezcsp__pl(87,92),87)))| () Bool
    false)
  (define-fun |455| () Bool
    false)
  (define-fun |required(ezcsp__eq(nWeight(3),174))| () Bool
    false)
  (define-fun |leafPos(8,5)| () Bool
    false)
  (define-fun |required(ezcsp__eq(nWeight(5),ezcsp__pl(nWeight(4),78)))| () Bool
    false)
  (define-fun |required(ezcsp__gt(nWeight(6),ezcsp__mn(ezcsp__pl(78,45),45)))| () Bool
    false)
  (define-fun |required(ezcsp__leq(nWeight(5),ezcsp__mn(ezcsp__pl(45,3),3)))| () Bool
    false)
  (define-fun |required(ezcsp__eq(nWeight(1),81))| () Bool
    false)
  (define-fun |required(ezcsp__eq(nWeight(1),107))| () Bool
    false)
  (define-fun |444| () Bool
    false)
  (define-fun |required(ezcsp__eq(nWeight(5),ezcsp__pl(nWeight(4),45)))| () Bool
    false)
  (define-fun |437| () Bool
    false)
  (define-fun |433| () Bool
    false)
  (define-fun |leafPos(2,5)| () Bool
    false)
  (define-fun |posColor(4,green)| () Bool
    false)
  (define-fun |leafPos(4,7)| () Bool
    false)
  (define-fun |required(ezcsp__eq(nWeight(6),122))| () Bool
    false)
  (define-fun |required(ezcsp__leq(nWeight(6),ezcsp__mn(ezcsp__pl(77,97),77)))| () Bool
    false)
  (define-fun |required(ezcsp__leq(nWeight(2),ezcsp__mn(ezcsp__pl(45,3),3)))| () Bool
    false)
  (define-fun |required(ezcsp__eq(nWeight(4),178))| () Bool
    false)
  (define-fun |required(ezcsp__leq(nWeight(6),ezcsp__mn(ezcsp__pl(66,34),34)))| () Bool
    false)
  (define-fun |leafPos(7,0)| () Bool
    false)
  (define-fun |422| () Bool
    false)
  (define-fun |required(ezcsp__eq(nWeight(1),100))| () Bool
    false)
  (define-fun |required(ezcsp__eq(nWeight(1),56))| () Bool
    false)
  (define-fun |required(ezcsp__eq(nWeight(2),123))| () Bool
    false)
  (define-fun |required(ezcsp__eq(nWeight(5),ezcsp__pl(nWeight(4),54)))| () Bool
    false)
  (define-fun |451| () Bool
    false)
  (define-fun |required(ezcsp__gt(nWeight(4),ezcsp__mn(ezcsp__pl(66,34),34)))| () Bool
    false)
  (define-fun |required(ezcsp__leq(nWeight(2),ezcsp__mn(ezcsp__pl(68,54),54)))| () Bool
    false)
  (define-fun |required(ezcsp__gt(nWeight(1),ezcsp__mn(ezcsp__pl(78,100),78)))| () Bool
    false)
  (define-fun |required(ezcsp__leq(nWeight(1),ezcsp__mn(ezcsp__pl(45,3),3)))| () Bool
    false)
  (define-fun |required(ezcsp__eq(nWeight(1),102))| () Bool
    false)
  (define-fun |required(ezcsp__eq(nWeight(1),143))| () Bool
    false)
  (define-fun |leafPos(2,4)| () Bool
    false)
  (define-fun |posColor(6,red)| () Bool
    false)
  (define-fun |482| () Bool
    false)
  (define-fun |required(ezcsp__leq(nWeight(3),ezcsp__mn(ezcsp__pl(77,97),77)))| () Bool
    false)
  (define-fun |required(ezcsp__eq(nWeight(4),ezcsp__pl(nWeight(3),77)))| () Bool
    false)
  (define-fun |450| () Bool
    false)
  (define-fun |required(ezcsp__eq(nWeight(1),155))| () Bool
    true)
  (define-fun |required(ezcsp__eq(nWeight(1),99))| () Bool
    false)
  (define-fun |441| () Bool
    false)
  (define-fun |485| () Bool
    false)
  (define-fun |required(ezcsp__leq(nWeight(5),ezcsp__mn(ezcsp__pl(87,92),87)))| () Bool
    false)
  (define-fun |479| () Bool
    false)
  (define-fun |required(ezcsp__gt(nWeight(2),ezcsp__mn(ezcsp__pl(66,34),34)))| () Bool
    false)
  (define-fun |required(ezcsp__eq(nWeight(2),89))| () Bool
    false)
  (define-fun |430| () Bool
    false)
  (define-fun |required(ezcsp__leq(nWeight(6),ezcsp__mn(ezcsp__pl(87,92),87)))| () Bool
    false)
  (define-fun |required(ezcsp__eq(nWeight(3),122))| () Bool
    false)
  (define-fun |required(ezcsp__gt(nWeight(1),ezcsp__mn(ezcsp__pl(77,97),77)))| () Bool
    false)
  (define-fun |required(ezcsp__eq(nWeight(7),178))| () Bool
    false)
  (define-fun |required(ezcsp__eq(nWeight(1),98))| () Bool
    false)
  (define-fun |447| () Bool
    false)
  (define-fun |488| () Bool
    false)
  (define-fun |required(ezcsp__eq(nWeight(3),ezcsp__pl(nWeight(2),78)))| () Bool
    false)
  (define-fun |required(ezcsp__eq(nWeight(5),178))| () Bool
    false)
  (define-fun |required(ezcsp__gt(nWeight(2),ezcsp__mn(ezcsp__pl(87,92),87)))| () Bool
    false)
  (define-fun |leafPos(5,1)| () Bool
    true)
  (define-fun |posColor(1,blue)| () Bool
    false)
  (define-fun |required(ezcsp__leq(nWeight(2),ezcsp__mn(ezcsp__pl(77,97),77)))| () Bool
    false)
  (define-fun |required(ezcsp__gt(nWeight(3),ezcsp__mn(ezcsp__pl(53,36),36)))| () Bool
    false)
  (define-fun |472| () Bool
    false)
  (define-fun |required(ezcsp__eq(nWeight(2),179))| () Bool
    false)
  (define-fun |posColor(1,red)| () Bool
    true)
  (define-fun |leafPos(1,0)| () Bool
    false)
  (define-fun |required(ezcsp__eq(nWeight(5),48))| () Bool
    false)
  (define-fun |492| () Bool
    false)
  (define-fun |required(ezcsp__gt(nWeight(2),ezcsp__mn(ezcsp__pl(78,45),45)))| () Bool
    false)
  (define-fun |required(ezcsp__eq(nWeight(6),100))| () Bool
    false)
  (define-fun |required(ezcsp__leq(nWeight(3),ezcsp__mn(ezcsp__pl(78,45),45)))| () Bool
    false)
  (define-fun |440| () Bool
    false)
  (define-fun |454| () Bool
    false)
  (define-fun |leafPos(6,3)| () Bool
    false)
  (define-fun |leafPos(7,1)| () Bool
    false)
  (define-fun |required(ezcsp__gt(nWeight(3),ezcsp__mn(ezcsp__pl(77,97),77)))| () Bool
    false)
  (define-fun |leafPos(8,7)| () Bool
    true)
  (define-fun |required(ezcsp__leq(nWeight(3),ezcsp__mn(ezcsp__pl(87,92),87)))| () Bool
    true)
  (define-fun |leafPos(6,5)| () Bool
    false)
  (define-fun |posColor(7,green)| () Bool
    true)
  (define-fun |required(ezcsp__gt(nWeight(6),ezcsp__mn(ezcsp__pl(77,97),77)))| () Bool
    false)
  (define-fun |required(ezcsp__leq(nWeight(4),ezcsp__mn(ezcsp__pl(66,34),34)))| () Bool
    false)
  (define-fun |leafPos(1,1)| () Bool
    false)
  (define-fun |419| () Bool
    false)
  (define-fun |490| () Bool
    false)
  (define-fun |required(ezcsp__eq(nWeight(1),130))| () Bool
    false)
  (define-fun |required(ezcsp__gt(nWeight(6),ezcsp__mn(ezcsp__pl(45,3),3)))| () Bool
    false)
  (define-fun |417| () Bool
    false)
  (define-fun |required(ezcsp__leq(nWeight(6),ezcsp__mn(ezcsp__pl(78,45),45)))| () Bool
    false)
  (define-fun |required(ezcsp__eq(nWeight(3),ezcsp__pl(nWeight(2),45)))| () Bool
    false)
  (define-fun |476| () Bool
    false)
  (define-fun |477| () Bool
    false)
  (define-fun |required(ezcsp__gt(nWeight(6),ezcsp__mn(ezcsp__pl(53,36),36)))| () Bool
    false)
  (define-fun |leafPos(3,6)| () Bool
    false)
  (define-fun |leafPos(3,5)| () Bool
    false)
  (define-fun |required(ezcsp__eq(nWeight(6),123))| () Bool
    true)
  (define-fun |posColor(2,red)| () Bool
    false)
  (define-fun |438| () Bool
    false)
  (define-fun |leafPos(5,2)| () Bool
    false)
  (define-fun |required(ezcsp__leq(nWeight(5),ezcsp__mn(ezcsp__pl(68,54),54)))| () Bool
    false)
  (define-fun |required(ezcsp__gt(nWeight(4),ezcsp__mn(ezcsp__pl(45,3),3)))| () Bool
    false)
  (define-fun |leafPos(4,4)| () Bool
    false)
  (define-fun |required(ezcsp__eq(nWeight(5),122))| () Bool
    false)
  (define-fun |required(ezcsp__eq(nWeight(2),ezcsp__pl(nWeight(1),36)))| () Bool
    false)
  (define-fun |required(ezcsp__eq(nWeight(7),ezcsp__pl(nWeight(6),36)))| () Bool
    false)
  (define-fun |leafPos(3,2)| () Bool
    false)
  (define-fun |required(ezcsp__gt(nWeight(6),ezcsp__mn(ezcsp__pl(66,34),34)))| () Bool
    false)
  (define-fun |required(ezcsp__gt(nWeight(4),ezcsp__mn(ezcsp__pl(78,45),45)))| () Bool
    false)
  (define-fun |required(ezcsp__eq(nWeight(6),174))| () Bool
    false)
  (define-fun |required(ezcsp__eq(nWeight(6),179))| () Bool
    false)
  (define-fun |495| () Bool
    false)
  (define-fun |posColor(7,blue)| () Bool
    false)
  (define-fun |leafPos(6,1)| () Bool
    false)
  (define-fun |required(ezcsp__eq(nWeight(5),123))| () Bool
    false)
  (define-fun |leafPos(2,0)| () Bool
    false)
  (define-fun |required(ezcsp__eq(nWeight(6),ezcsp__pl(nWeight(5),78)))| () Bool
    false)
  (define-fun |required(ezcsp__eq(nWeight(5),ezcsp__pl(nWeight(4),34)))| () Bool
    false)
  (define-fun |posColor(7,red)| () Bool
    false)
  (define-fun |posColor(6,green)| () Bool
    true)
  (define-fun |required(ezcsp__eq(nWeight(5),ezcsp__pl(nWeight(4),36)))| () Bool
    false)
  (define-fun |required(ezcsp__gt(nWeight(5),ezcsp__mn(ezcsp__pl(66,34),34)))| () Bool
    false)
  (define-fun |required(ezcsp__eq(nWeight(2),174))| () Bool
    false)
  (define-fun |required(ezcsp__eq(nWeight(1),154))| () Bool
    false)
  (define-fun |required(ezcsp__leq(nWeight(1),ezcsp__mn(ezcsp__pl(77,97),77)))| () Bool
    false)
  (define-fun |required(ezcsp__eq(nWeight(4),48))| () Bool
    false)
  (define-fun |required(ezcsp__eq(nWeight(3),ezcsp__pl(nWeight(2),87)))| () Bool
    false)
  (define-fun |435| () Bool
    false)
  (define-fun |452| () Bool
    false)
  (define-fun |481| () Bool
    false)
  (define-fun |required(ezcsp__eq(nWeight(2),ezcsp__pl(nWeight(1),77)))| () Bool
    false)
  (define-fun |leafPos(2,2)| () Bool
    false)
  (define-fun |required(ezcsp__leq(nWeight(4),ezcsp__mn(ezcsp__pl(53,36),36)))| () Bool
    false)
  (define-fun |leafPos(3,0)| () Bool
    true)
  (define-fun |484| () Bool
    false)
  (define-fun |required(ezcsp__eq(nWeight(3),ezcsp__pl(nWeight(2),3)))| () Bool
    false)
  (define-fun |457| () Bool
    false)
  (define-fun |required(ezcsp__gt(nWeight(2),ezcsp__mn(ezcsp__pl(78,100),78)))| () Bool
    false)
  (define-fun |leafPos(8,2)| () Bool
    false)
  (define-fun |leafPos(7,6)| () Bool
    false)
  (define-fun |required(ezcsp__eq(nWeight(6),ezcsp__pl(nWeight(5),77)))| () Bool
    false)
  (define-fun |required(ezcsp__eq(nWeight(1),114))| () Bool
    false)
  (define-fun |required(ezcsp__eq(nWeight(4),89))| () Bool
    false)
  (define-fun |required(ezcsp__eq(nWeight(5),ezcsp__pl(nWeight(4),3)))| () Bool
    false)
  (define-fun |required(ezcsp__eq(nWeight(1),132))| () Bool
    false)
  (define-fun |required(ezcsp__gt(nWeight(5),ezcsp__mn(ezcsp__pl(78,45),45)))| () Bool
    true)
  (define-fun |leafPos(6,4)| () Bool
    false)
  (define-fun |required(ezcsp__eq(nWeight(6),ezcsp__pl(nWeight(5),54)))| () Bool
    false)
  (define-fun |required(ezcsp__eq(nWeight(6),ezcsp__pl(nWeight(5),36)))| () Bool
    false)
  (define-fun |required(ezcsp__eq(nWeight(4),ezcsp__pl(nWeight(3),34)))| () Bool
    false)
  (define-fun |leafPos(1,2)| () Bool
    true)
  (define-fun |required(ezcsp__eq(nWeight(2),122))| () Bool
    false)
  (define-fun |required(ezcsp__gt(nWeight(3),ezcsp__mn(ezcsp__pl(68,54),54)))| () Bool
    false)
  (define-fun |required(ezcsp__eq(nWeight(1),145))| () Bool
    false)
  (define-fun |required(ezcsp__leq(nWeight(2),ezcsp__mn(ezcsp__pl(66,34),34)))| () Bool
    false)
  (define-fun |required(ezcsp__gt(nWeight(5),ezcsp__mn(ezcsp__pl(77,97),77)))| () Bool
    false)
  (define-fun |required(ezcsp__eq(nWeight(7),ezcsp__pl(nWeight(6),3)))| () Bool
    false)
  (define-fun |nWeight(1)| () Int
    155)
  (define-fun |required(ezcsp__eq(nWeight(4),123))| () Bool
    false)
  (define-fun |493| () Bool
    false)
  (define-fun |420| () Bool
    false)
  (define-fun |required(ezcsp__leq(nWeight(2),ezcsp__mn(ezcsp__pl(87,92),87)))| () Bool
    false)
  (define-fun |required(ezcsp__eq(nWeight(2),178))| () Bool
    false)
  (define-fun |required(ezcsp__eq(nWeight(7),122))| () Bool
    true)
  (define-fun |required(ezcsp__eq(nWeight(1),120))| () Bool
    false)
  (define-fun |required(ezcsp__eq(nWeight(4),ezcsp__pl(nWeight(3),45)))| () Bool
    false)
  (define-fun |required(ezcsp__eq(nWeight(5),100))| () Bool
    false)
  (define-fun |required(ezcsp__leq(nWeight(4),ezcsp__mn(ezcsp__pl(68,54),54)))| () Bool
    false)
  (define-fun |required(ezcsp__eq(nWeight(1),71))| () Bool
    false)
  (define-fun |442| () Bool
    false)
  (define-fun |required(ezcsp__eq(nWeight(3),ezcsp__pl(nWeight(2),34)))| () Bool
    false)
  (define-fun |469| () Bool
    false)
  (define-fun |required(ezcsp__gt(nWeight(1),ezcsp__mn(ezcsp__pl(78,45),45)))| () Bool
    false)
  (define-fun |required(ezcsp__eq(nWeight(6),ezcsp__pl(nWeight(5),87)))| () Bool
    false)
  (define-fun |required(ezcsp__eq(nWeight(1),79))| () Bool
    false)
  (define-fun |453| () Bool
    false)
  (define-fun |required(ezcsp__gt(nWeight(3),ezcsp__mn(ezcsp__pl(87,92),87)))| () Bool
    false)
  (define-fun |439| () Bool
    false)
  (define-fun |required(ezcsp__gt(nWeight(4),ezcsp__mn(ezcsp__pl(77,97),77)))| () Bool
    false)
  (define-fun |leafPos(1,3)| () Bool
    false)
  (define-fun |423| () Bool
    false)
  (define-fun |443| () Bool
    false)
  (define-fun |leafPos(3,4)| () Bool
    false)
  (define-fun |required(ezcsp__leq(nWeight(6),ezcsp__mn(ezcsp__pl(53,36),36)))| () Bool
    false)
  (define-fun |leafPos(8,3)| () Bool
    false)
  (define-fun |473| () Bool
    false)
  (define-fun |required(ezcsp__gt(nWeight(3),ezcsp__mn(ezcsp__pl(45,3),3)))| () Bool
    false)
  (define-fun |nWeight(7)| () Int
    122)
  (define-fun |required(ezcsp__leq(nWeight(5),ezcsp__mn(ezcsp__pl(53,36),36)))| () Bool
    false)
  (define-fun |424| () Bool
    false)
  (define-fun |required(ezcsp__leq(nWeight(3),ezcsp__mn(ezcsp__pl(45,3),3)))| () Bool
    false)
  (define-fun |leafPos(5,3)| () Bool
    false)
  (define-fun |required(ezcsp__eq(nWeight(7),179))| () Bool
    false)
  (define-fun |required(ezcsp__gt(nWeight(1),ezcsp__mn(ezcsp__pl(68,54),54)))| () Bool
    false)
  (define-fun |required(ezcsp__leq(nWeight(5),ezcsp__mn(ezcsp__pl(78,45),45)))| () Bool
    false)
  (define-fun |460| () Bool
    false)
  (define-fun |456| () Bool
    false)
  (define-fun |445| () Bool
    true)
  (define-fun |required(ezcsp__eq(nWeight(1),121))| () Bool
    false)
  (define-fun |required(ezcsp__leq(nWeight(1),ezcsp__mn(ezcsp__pl(68,54),54)))| () Bool
    false)
  (define-fun |required(ezcsp__eq(nWeight(6),ezcsp__pl(nWeight(5),34)))| () Bool
    false)
  (define-fun |required(ezcsp__gt(nWeight(4),ezcsp__mn(ezcsp__pl(87,92),87)))| () Bool
    false)
  (define-fun |required(ezcsp__eq(nWeight(1),87))| () Bool
    false)
  (define-fun |required(ezcsp__eq(nWeight(7),174))| () Bool
    false)
  (define-fun |required(ezcsp__gt(nWeight(1),ezcsp__mn(ezcsp__pl(45,3),3)))| () Bool
    false)
  (define-fun |448| () Bool
    false)
  (define-fun |leafPos(5,4)| () Bool
    false)
  (define-fun |required(ezcsp__eq(nWeight(4),122))| () Bool
    false)
  (define-fun |leafPos(1,7)| () Bool
    false)
  (define-fun |leafPos(1,4)| () Bool
    false)
  (define-fun |required(ezcsp__leq(nWeight(1),ezcsp__mn(ezcsp__pl(66,34),34)))| () Bool
    false)
  (define-fun |required(ezcsp__eq(nWeight(1),140))| () Bool
    false)
  (define-fun |required(ezcsp__eq(nWeight(2),ezcsp__pl(nWeight(1),78)))| () Bool
    false)
  (define-fun |required(ezcsp__leq(nWeight(6),ezcsp__mn(ezcsp__pl(68,54),54)))| () Bool
    false)
  (define-fun |required(ezcsp__eq(nWeight(4),ezcsp__pl(nWeight(3),54)))| () Bool
    false)
  (define-fun |483| () Bool
    false)
  (define-fun |474| () Bool
    false)
  (define-fun |required(ezcsp__leq(nWeight(4),ezcsp__mn(ezcsp__pl(77,97),77)))| () Bool
    false)
  (define-fun |471| () Bool
    true)
  (define-fun |421| () Bool
    false)
  (define-fun |required(ezcsp__leq(nWeight(6),ezcsp__mn(ezcsp__pl(45,3),3)))| () Bool
    false)
  (define-fun |466| () Bool
    false)
  (define-fun |required(ezcsp__eq(nWeight(2),ezcsp__pl(nWeight(1),45)))| () Bool
    false)
  (define-fun |436| () Bool
    false)
  (define-fun |leafPos(6,0)| () Bool
    false)
  (define-fun |leafPos(7,2)| () Bool
    false)
  (define-fun |required(ezcsp__leq(nWeight(5),ezcsp__mn(ezcsp__pl(78,100),78)))| () Bool
    false)
  (define-fun |required(ezcsp__leq(nWeight(3),ezcsp__mn(ezcsp__pl(66,34),34)))| () Bool
    false)
  (define-fun |491| () Bool
    false)
  (define-fun |posColor(3,green)| () Bool
    true)
  (define-fun |475| () Bool
    false)
  (define-fun |required(ezcsp__leq(nWeight(1),ezcsp__mn(ezcsp__pl(87,92),87)))| () Bool
    false)
  (define-fun |465| () Bool
    false)
  (define-fun |449| () Bool
    false)
  (define-fun |required(ezcsp__eq(nWeight(1),153))| () Bool
    false)
  (define-fun |leafPos(8,0)| () Bool
    false)
  (define-fun |required(ezcsp__gt(nWeight(5),ezcsp__mn(ezcsp__pl(45,3),3)))| () Bool
    false)
  (define-fun |required(ezcsp__eq(nWeight(1),123))| () Bool
    false)
  (define-fun |required(ezcsp__eq(nWeight(1),122))| () Bool
    false)
  (define-fun |required(ezcsp__gt(nWeight(6),ezcsp__mn(ezcsp__pl(68,54),54)))| () Bool
    true)
  (define-fun |posColor(5,green)| () Bool
    true)
  (define-fun |425| () Bool
    false)
  (define-fun |required(ezcsp__eq(nWeight(1),156))| () Bool
    false)
  (define-fun |required(ezcsp__eq(nWeight(1),104))| () Bool
    false)
  (define-fun |required(ezcsp__eq(nWeight(2),48))| () Bool
    false)
  (define-fun |required(ezcsp__eq(nWeight(1),179))| () Bool
    false)
  (define-fun |required(ezcsp__gt(nWeight(1),ezcsp__mn(ezcsp__pl(66,34),34)))| () Bool
    true)
  (define-fun |leafPos(8,4)| () Bool
    false)
  (define-fun |required(ezcsp__leq(nWeight(2),ezcsp__mn(ezcsp__pl(53,36),36)))| () Bool
    false)
  (define-fun |required(ezcsp__eq(nWeight(7),100))| () Bool
    false)
  (define-fun |required(ezcsp__gt(nWeight(6),ezcsp__mn(ezcsp__pl(87,92),87)))| () Bool
    false)
  (define-fun |487| () Bool
    false)
  (define-fun |leafPos(3,3)| () Bool
    false)
  (define-fun |required(ezcsp__eq(nWeight(1),48))| () Bool
    false)
  (define-fun |posColor(4,red)| () Bool
    true)
  (define-fun |required(ezcsp__eq(nWeight(1),164))| () Bool
    false)
  (define-fun |leafPos(5,6)| () Bool
    false)
  (define-fun |required(ezcsp__eq(nWeight(2),ezcsp__pl(nWeight(1),87)))| () Bool
    false)
  (define-fun |required(ezcsp__eq(nWeight(5),179))| () Bool
    false)
  (define-fun |required(ezcsp__eq(nWeight(7),ezcsp__pl(nWeight(6),87)))| () Bool
    false)
  (define-fun |required(ezcsp__leq(nWeight(2),ezcsp__mn(ezcsp__pl(78,45),45)))| () Bool
    false)
  (define-fun |required(ezcsp__eq(nWeight(7),123))| () Bool
    false)
  (define-fun |429| () Bool
    false)
  (define-fun |required(ezcsp__eq(nWeight(1),144))| () Bool
    false)
  (define-fun |required(ezcsp__eq(nWeight(7),48))| () Bool
    false)
  (define-fun |required(ezcsp__eq(nWeight(1),165))| () Bool
    false)
  (define-fun |nWeight(4)| () Int
    135)
  (define-fun |required(ezcsp__eq(nWeight(5),89))| () Bool
    true)
  (define-fun |required(ezcsp__gt(nWeight(2),ezcsp__mn(ezcsp__pl(45,3),3)))| () Bool
    true)
  (define-fun |required(ezcsp__leq(nWeight(4),ezcsp__mn(ezcsp__pl(78,45),45)))| () Bool
    false)
  (define-fun |required(ezcsp__gt(nWeight(1),ezcsp__mn(ezcsp__pl(87,92),87)))| () Bool
    false)
  (define-fun |463| () Bool
    false)
  (define-fun |required(ezcsp__eq(nWeight(4),ezcsp__pl(nWeight(3),87)))| () Bool
    true)
  (define-fun |nWeight(2)| () Int
    100)
  (define-fun |415| () Bool
    true)
  (define-fun |label_order(nWeight(1),1)| () Bool
    true)
  (define-fun |label_order(nWeight(2),1)| () Bool
    true)
  (define-fun |label_order(nWeight(3),1)| () Bool
    true)
  (define-fun |label_order(nWeight(4),1)| () Bool
    true)
  (define-fun |label_order(nWeight(5),1)| () Bool
    true)
  (define-fun |label_order(nWeight(6),1)| () Bool
    true)
  (define-fun |label_order(nWeight(7),1)| () Bool
    true)
  (define-fun |required(ezcsp__sum(list(nWeight,1),ezcsp__leq,772))| () Bool
    true)
  (define-fun |172| () Bool
    true)
  (define-fun |171| () Bool
    true)
  (define-fun |167| () Bool
    true)
  (define-fun |166| () Bool
    true)
  (define-fun |162| () Bool
    true)
  (define-fun |161| () Bool
    true)
  (define-fun |157| () Bool
    true)
  (define-fun |156| () Bool
    true)
  (define-fun |152| () Bool
    true)
  (define-fun |151| () Bool
    true)
  (define-fun |147| () Bool
    true)
  (define-fun |146| () Bool
    true)
  (define-fun |139| () Bool
    true)
  (define-fun |138| () Bool
    true)
  (define-fun |129| () Bool
    true)
  (define-fun |128| () Bool
    true)
  (define-fun |119| () Bool
    true)
  (define-fun |118| () Bool
    true)
  (define-fun |109| () Bool
    true)
  (define-fun |108| () Bool
    true)
  (define-fun |99| () Bool
    true)
  (define-fun |98| () Bool
    true)
  (define-fun |89| () Bool
    true)
  (define-fun |88| () Bool
    true)
  (define-fun |79| () Bool
    true)
  (define-fun |78| () Bool
    true)
  (define-fun |69| () Bool
    false)
  (define-fun |68| () Bool
    true)
  (define-fun |67| () Bool
    true)
  (define-fun |location(7)| () Bool
    true)
  (define-fun |location(6)| () Bool
    true)
  (define-fun |location(5)| () Bool
    true)
  (define-fun |location(4)| () Bool
    true)
  (define-fun |location(3)| () Bool
    true)
  (define-fun |location(2)| () Bool
    true)
  (define-fun |location(1)| () Bool
    true)
  (define-fun |leafCost(1,34)| () Bool
    true)
  (define-fun |leafCost(2,3)| () Bool
    true)
  (define-fun |leafCost(4,36)| () Bool
    true)
  (define-fun |leafCost(6,45)| () Bool
    true)
  (define-fun |leafCost(8,54)| () Bool
    true)
  (define-fun |leafCost(3,77)| () Bool
    true)
  (define-fun |leafCost(5,78)| () Bool
    true)
  (define-fun |leafCost(7,87)| () Bool
    true)
  (define-fun |cspvar(nWeight(1),0,772)| () Bool
    true)
  (define-fun |cspvar(nWeight(2),0,772)| () Bool
    true)
  (define-fun |cspvar(nWeight(3),0,772)| () Bool
    true)
  (define-fun |cspvar(nWeight(4),0,772)| () Bool
    true)
  (define-fun |cspvar(nWeight(5),0,772)| () Bool
    true)
  (define-fun |cspvar(nWeight(6),0,772)| () Bool
    true)
  (define-fun |cspvar(nWeight(7),0,772)| () Bool
    true)
  (define-fun |coloredPos(7)| () Bool
    true)
  (define-fun |coloredPos(6)| () Bool
    true)
  (define-fun |coloredPos(5)| () Bool
    true)
  (define-fun |coloredPos(4)| () Bool
    true)
  (define-fun |coloredPos(3)| () Bool
    true)
  (define-fun |coloredPos(2)| () Bool
    true)
  (define-fun |coloredPos(1)| () Bool
    true)
  (define-fun |leaf(1)| () Bool
    true)
  (define-fun |leaf(2)| () Bool
    true)
  (define-fun |leaf(3)| () Bool
    true)
  (define-fun |leaf(4)| () Bool
    true)
  (define-fun |leaf(5)| () Bool
    true)
  (define-fun |leaf(6)| () Bool
    true)
  (define-fun |leaf(7)| () Bool
    true)
  (define-fun |leaf(8)| () Bool
    true)
  (define-fun |max_total_weight(772)| () Bool
    true)
  (define-fun |num(8)| () Bool
    true)
  (define-fun |innerNode(7)| () Bool
    true)
  (define-fun |innerNode(6)| () Bool
    true)
  (define-fun |innerNode(5)| () Bool
    true)
  (define-fun |innerNode(4)| () Bool
    true)
  (define-fun |innerNode(3)| () Bool
    true)
  (define-fun |innerNode(2)| () Bool
    true)
  (define-fun |innerNode(1)| () Bool
    true)
  (define-fun |leafWeightCardinality(8,68,54)| () Bool
    true)
  (define-fun |leafWeightCardinality(7,87,92)| () Bool
    true)
  (define-fun |leafWeightCardinality(6,78,45)| () Bool
    true)
  (define-fun |leafWeightCardinality(5,78,100)| () Bool
    true)
  (define-fun |leafWeightCardinality(4,53,36)| () Bool
    true)
  (define-fun |leafWeightCardinality(3,77,97)| () Bool
    true)
  (define-fun |leafWeightCardinality(2,45,3)| () Bool
    true)
  (define-fun |leafWeightCardinality(1,66,34)| () Bool
    true)
  (define-fun |location(0)| () Bool
    true)
  (define-fun |color(green)| () Bool
    true)
  (define-fun |color(blue)| () Bool
    true)
  (define-fun |color(red)| () Bool
    true)
)
